interface ihello
{
  in bool hello ();
  behaviour {}
}

component hello
{
  provides ihello p;
  behaviour {}
}

component instance_port_not_bound
{
  provides ihello p;
  system
  {
    hello h;
    hello i;
    p <=> h.p;
    p <=> i.p;
  }
}
